10	5
0	5	5	4	3	2	1
1	1	10
2	4	8	9	6	7
3	2	6	10
4	1	8
5	3	8	9	6
6	1	11
7	1	11
8	1	11
9	1	11
10	1	11
11	0
0	0	0	0	0	0	0
1	9	0	0	0	0	3
2	2	2	2	5	4	0
3	2	0	0	0	2	0
4	4	5	2	0	0	4
5	5	1	0	5	4	1
6	1	4	0	5	0	0
7	10	0	5	3	5	1
8	9	4	2	0	3	0
9	8	0	0	5	0	5
10	7	0	0	5	0	0
11	0	0	0	0	0	0
5	6	8	8	8
